25253.05,51.72,56.96
26996.65,48.38,53.28
28311.43,46.14,50.81
30821.75,42.38,46.67
26814.0,48.71,53.64
32913.9,39.69,43.7
27414.68,47.65,52.47
28669.62,45.56,50.17
26023.43,50.19,55.27
27632.98,47.27,52.06
28302.59,46.15,50.82
30991.56,42.15,46.41
29549.63,44.2,48.68
25700.97,50.82,55.97
25159.59,51.92,57.17
29550.28,44.2,48.68
30219.3,43.22,47.6
30571.22,42.73,47.05
27112.22,48.18,53.05
24857.56,52.55,57.87
